letting n =  10
letting blocks =  [[1, 1], [1, 3], [1, 4], [1, 8], [1, 9], [2, 1], [2, 2], [2, 7], [3, 2], [3, 3], [3, 5], [3, 8], [3, 10], [4, 4], [4, 6], [4, 7], [4, 9], [5, 1], [5, 2], [5, 3], [5, 7], [5, 8], [5, 10], [6, 6], [7, 1], [7, 3], [7, 6], [7, 7], [7, 10], [8, 1], [8, 3], [8, 4], [8, 7], [8, 9], [8, 10], [9, 4], [9, 7], [9, 9], [9, 10], [10, 3], [10, 4], [10, 10]]
